NAME : XML100_3244_11
DIMENSION : 101
NB_CLUSTERS : 3
CLUSTERING_ALG : DBSCAN
CLUSTERING_PARAMS : eps(80), minSamples(3)
CLUSTERS
1 0
2 1 2 3 4 5 6 7 9 10 11 12 14 16 17 18 19 20 21 22 23 24 25 26 27 28 29 30 31 32 33 34 35 36 37 38 39 40 41 42 43 44 46 48 49 50 51 53 54 55 56 58 59 60 61 62 64 65 66 67 68 69 71 72 73 74 76 77 78 79 80 81 82 84 86 88 90 91 92 93 94 95 96 97 98 100
3 8 13 15 45 47 52 57 63 70 75 83 85 87 89 99
EOF